5 6 88
4 2 1 3 2 3 3 3 4 9 29 29 51 51 69 69 83 
6 3 1 4 1 4 2 4 3 4 4 1 3 3 17 17 31 31 43 43 61 61 73 73 87 
5 5 1 5 2 5 3 5 4 5 5 4 20 20 36 36 56 56 72 72 88 
4 1 1 1 2 2 2 2 3 10 32 32 50 50 72 72 88 
6 3 1 1 1 1 1 2 2 2 2 1 3 0 3 3 7 7 10 25 29 29 30 50 55 
6 5 1 2 1 2 1 4 1 4 1 3 2 0 4 4 7 7 9 9 12 12 15 17 23 
